************************************************************************
file with basedata            : mm55_.bas
initial value random generator: 1089052379
************************************************************************
projects                      :  1
jobs (incl. supersource/sink ):  12
horizon                       :  77
RESOURCES
  - renewable                 :  2   R
  - nonrenewable              :  2   N
  - doubly constrained        :  0   D
************************************************************************
PROJECT INFORMATION:
pronr.  #jobs rel.date duedate tardcost  MPM-Time
    1     10      0       13        7       13
************************************************************************
PRECEDENCE RELATIONS:
jobnr.    #modes  #successors   successors
   0        1          3           1   2   3
   1        3          1           4
   2        3          2           6   7
   3        3          3           4   5  10
   4        3          1           9
   5        3          1           8
   6        3          2           8  10
   7        3          2           8   9
   8        3          1          11
   9        3          1          11
  10        3          1          11
  11        1          0        
************************************************************************
REQUESTS/DURATIONS:
jobnr. mode duration  R 1  R 2  R 3  R 4  E(W 1)  E(W 2)
------------------------------------------------------------------------
  0      1     0       0    0    0    0     0       0
  1      1     9       5    9    4    6    126      90
  2      1     1       7    6    9   10    13      19
  3      1     1       4    4    9   10     8      19
  4      1     3       8    6    2    3    42      15
  5      1     1       4    6    7    8    10      15
  6      1     1       9    4    2    9    13      11
  7      1     2       8    4    6    5    24      22
  8      1     3       4    6    3    8    30      33
  9      1     1       8    8    7    6    16      13
 10      1     4       8    2    6    5    40      44
 11      1     0       0    0    0    0     0       0
************************************************************************
RESOURCEAVAILABILITIES:
  R 1  R 2
   38   113
************************************************************************
RESOURCE LIMITS:
jobnr.  l(R 1)  u(R 1)  l(R 2)  u(R 2)
------------------------------------------------------------------------
  0        0       0       0       0
  1        8      14       5      10
  2        7      13      10      19
  3        4       8      10      19
  4        7      14       3       5
  5        5      10       8      15
  6        7      13       6      11
  7        6      12       6      11
  8        5      10       6      11
  9        8      16       7      13
 10        5      10       6      11
 11        0       0       0       0
************************************************************************
SCENARIOS:
------------------------------------------------------------------------
RESOURCE k = 1
s = 1: (0, 123, 10, 11, 36, 16, 10, 23, 37, 22, 67, 0)
s = 2: (0, 66, 12, 6, 60, 14, 16, 15, 26, 14, 36, 0)
s = 3: (0, 86, 8, 7, 37, 8, 17, 28, 31, 12, 35, 0)
s = 4: (0, 103, 8, 6, 33, 11, 10, 17, 19, 24, 23, 0)
s = 5: (0, 119, 16, 9, 44, 13, 14, 24, 23, 14, 35, 0)
s = 6: (0, 118, 10, 11, 52, 12, 12, 32, 22, 14, 51, 0)
s = 7: (0, 134, 25, 11, 42, 7, 9, 17, 17, 15, 31, 0)
s = 8: (0, 174, 13, 12, 36, 6, 13, 18, 28, 16, 41, 0)
s = 9: (0, 112, 8, 9, 68, 8, 16, 19, 20, 23, 44, 0)
s = 10: (0, 124, 10, 16, 34, 15, 13, 18, 25, 18, 46, 0)
s = 11: (0, 113, 13, 14, 47, 10, 18, 29, 27, 10, 42, 0)
s = 12: (0, 114, 16, 13, 33, 10, 7, 13, 18, 11, 39, 0)
s = 13: (0, 202, 15, 7, 34, 10, 10, 26, 25, 10, 31, 0)
s = 14: (0, 119, 9, 12, 48, 16, 10, 21, 25, 27, 37, 0)
s = 15: (0, 97, 15, 7, 43, 9, 10, 16, 53, 14, 37, 0)
s = 16: (0, 104, 15, 10, 57, 7, 11, 13, 29, 15, 23, 0)
s = 17: (0, 157, 18, 7, 42, 15, 21, 30, 23, 15, 43, 0)
s = 18: (0, 163, 12, 6, 29, 8, 13, 13, 26, 9, 33, 0)
s = 19: (0, 195, 14, 5, 33, 7, 12, 29, 32, 19, 46, 0)
s = 20: (0, 214, 13, 11, 39, 9, 14, 24, 22, 21, 38, 0)
s = 21: (0, 205, 17, 9, 60, 12, 10, 33, 20, 11, 43, 0)
s = 22: (0, 112, 20, 5, 41, 11, 10, 15, 25, 19, 50, 0)
s = 23: (0, 156, 8, 8, 42, 10, 12, 18, 30, 18, 31, 0)
s = 24: (0, 106, 13, 7, 32, 8, 9, 21, 29, 22, 32, 0)
s = 25: (0, 150, 9, 11, 47, 10, 18, 16, 41, 29, 28, 0)
s = 26: (0, 87, 13, 11, 56, 15, 18, 24, 29, 21, 44, 0)
s = 27: (0, 150, 17, 8, 37, 17, 11, 17, 37, 16, 26, 0)
s = 28: (0, 132, 13, 7, 34, 7, 19, 17, 22, 13, 29, 0)
s = 29: (0, 118, 13, 8, 36, 18, 16, 30, 24, 21, 36, 0)
s = 30: (0, 132, 15, 8, 26, 9, 16, 18, 44, 10, 37, 0)
s = 31: (0, 153, 13, 9, 31, 15, 8, 20, 41, 13, 39, 0)
s = 32: (0, 140, 11, 8, 58, 12, 10, 18, 31, 13, 29, 0)
s = 33: (0, 177, 22, 10, 36, 15, 17, 28, 31, 17, 66, 0)
s = 34: (0, 130, 13, 14, 38, 16, 12, 31, 27, 22, 39, 0)
s = 35: (0, 125, 12, 7, 33, 8, 12, 21, 31, 14, 41, 0)
s = 36: (0, 87, 11, 8, 60, 15, 13, 19, 30, 20, 42, 0)
s = 37: (0, 123, 9, 9, 35, 10, 16, 25, 29, 14, 36, 0)
s = 38: (0, 142, 15, 6, 25, 8, 12, 17, 20, 13, 53, 0)
s = 39: (0, 91, 13, 8, 48, 15, 17, 23, 29, 20, 24, 0)
s = 40: (0, 168, 21, 5, 35, 16, 9, 16, 27, 25, 23, 0)
s = 41: (0, 168, 16, 10, 36, 11, 11, 27, 18, 19, 30, 0)
s = 42: (0, 116, 13, 10, 47, 10, 12, 30, 29, 13, 32, 0)
s = 43: (0, 158, 8, 7, 26, 16, 15, 34, 30, 16, 30, 0)
s = 44: (0, 109, 17, 6, 60, 8, 12, 19, 42, 17, 47, 0)
s = 45: (0, 170, 18, 8, 28, 12, 11, 26, 27, 13, 43, 0)
s = 46: (0, 118, 15, 12, 46, 8, 17, 24, 23, 9, 46, 0)
s = 47: (0, 122, 8, 6, 36, 12, 13, 20, 23, 20, 29, 0)
s = 48: (0, 97, 19, 9, 25, 12, 12, 18, 31, 14, 29, 0)
s = 49: (0, 104, 14, 8, 28, 8, 14, 27, 19, 13, 43, 0)
s = 50: (0, 98, 10, 7, 28, 15, 15, 26, 21, 13, 53, 0)
s = 51: (0, 78, 15, 11, 38, 16, 13, 15, 24, 21, 42, 0)
s = 52: (0, 199, 10, 6, 26, 10, 17, 35, 38, 15, 24, 0)
s = 53: (0, 109, 14, 11, 42, 7, 13, 19, 21, 15, 55, 0)
s = 54: (0, 114, 18, 7, 47, 11, 18, 23, 23, 16, 49, 0)
s = 55: (0, 102, 12, 7, 35, 9, 14, 17, 40, 20, 38, 0)
s = 56: (0, 140, 9, 10, 64, 9, 18, 14, 50, 23, 43, 0)
s = 57: (0, 93, 16, 5, 28, 11, 10, 35, 19, 18, 54, 0)
s = 58: (0, 130, 9, 10, 38, 17, 12, 20, 28, 14, 42, 0)
s = 59: (0, 134, 11, 10, 57, 12, 17, 20, 45, 15, 46, 0)
s = 60: (0, 146, 11, 9, 51, 8, 17, 25, 23, 19, 45, 0)
s = 61: (0, 188, 15, 8, 31, 14, 13, 28, 37, 12, 37, 0)
s = 62: (0, 108, 11, 6, 40, 12, 15, 48, 38, 22, 25, 0)
s = 63: (0, 143, 16, 6, 36, 14, 15, 18, 36, 12, 31, 0)
s = 64: (0, 100, 16, 8, 32, 11, 12, 35, 29, 11, 24, 0)
s = 65: (0, 112, 13, 6, 41, 12, 11, 25, 34, 22, 37, 0)
s = 66: (0, 117, 14, 13, 48, 11, 11, 19, 19, 11, 60, 0)
s = 67: (0, 94, 15, 10, 40, 9, 9, 30, 22, 22, 37, 0)
s = 68: (0, 143, 11, 10, 46, 13, 15, 15, 32, 10, 38, 0)
s = 69: (0, 107, 10, 10, 35, 7, 18, 26, 29, 19, 57, 0)
s = 70: (0, 168, 9, 7, 49, 10, 15, 29, 30, 15, 23, 0)
s = 71: (0, 123, 14, 7, 77, 8, 15, 19, 25, 19, 30, 0)
s = 72: (0, 108, 13, 6, 34, 9, 17, 20, 34, 13, 34, 0)
s = 73: (0, 121, 17, 16, 36, 8, 17, 41, 37, 16, 25, 0)
s = 74: (0, 92, 14, 5, 50, 12, 11, 30, 39, 13, 32, 0)
s = 75: (0, 101, 16, 6, 36, 10, 12, 22, 30, 21, 38, 0)
s = 76: (0, 176, 14, 8, 50, 13, 13, 22, 30, 15, 29, 0)
s = 77: (0, 144, 18, 7, 33, 6, 12, 21, 41, 20, 29, 0)
s = 78: (0, 174, 15, 16, 42, 18, 10, 21, 33, 17, 46, 0)
s = 79: (0, 164, 21, 5, 48, 8, 20, 23, 33, 15, 25, 0)
s = 80: (0, 136, 16, 6, 37, 9, 23, 31, 20, 13, 33, 0)
s = 81: (0, 96, 12, 9, 39, 10, 20, 24, 38, 16, 39, 0)
s = 82: (0, 95, 9, 10, 38, 11, 19, 31, 17, 19, 43, 0)
s = 83: (0, 110, 14, 10, 45, 7, 10, 26, 28, 13, 48, 0)
s = 84: (0, 137, 14, 13, 54, 8, 13, 20, 31, 17, 28, 0)
s = 85: (0, 176, 9, 9, 63, 8, 16, 27, 21, 11, 32, 0)
s = 86: (0, 138, 13, 10, 28, 14, 9, 34, 33, 20, 29, 0)
s = 87: (0, 129, 10, 11, 34, 10, 17, 20, 25, 12, 54, 0)
s = 88: (0, 234, 10, 8, 42, 14, 11, 24, 50, 9, 32, 0)
s = 89: (0, 163, 18, 7, 29, 16, 11, 21, 32, 17, 28, 0)
s = 90: (0, 134, 8, 6, 26, 10, 9, 28, 39, 15, 38, 0)
s = 91: (0, 157, 14, 9, 48, 15, 13, 23, 33, 18, 34, 0)
s = 92: (0, 96, 13, 13, 32, 14, 12, 31, 30, 13, 40, 0)
s = 93: (0, 83, 11, 13, 22, 11, 9, 33, 26, 13, 50, 0)
s = 94: (0, 222, 15, 8, 44, 13, 17, 35, 35, 17, 27, 0)
s = 95: (0, 212, 12, 11, 52, 11, 13, 37, 25, 16, 59, 0)
s = 96: (0, 106, 14, 10, 25, 7, 11, 29, 33, 16, 42, 0)
s = 97: (0, 97, 8, 8, 45, 12, 12, 25, 46, 14, 54, 0)
s = 98: (0, 75, 11, 9, 43, 10, 16, 22, 21, 16, 39, 0)
s = 99: (0, 145, 16, 11, 56, 14, 11, 25, 21, 12, 30, 0)
s = 100: (0, 110, 16, 5, 26, 14, 11, 30, 21, 11, 43, 0)
s = 101: (0, 91, 13, 10, 57, 13, 14, 29, 34, 10, 35, 0)
s = 102: (0, 144, 18, 8, 39, 9, 11, 27, 27, 13, 32, 0)
s = 103: (0, 159, 11, 12, 56, 13, 19, 33, 25, 13, 54, 0)
s = 104: (0, 206, 11, 10, 25, 11, 13, 41, 32, 11, 37, 0)
s = 105: (0, 122, 16, 6, 30, 8, 16, 18, 25, 26, 45, 0)
s = 106: (0, 120, 13, 6, 38, 8, 10, 17, 38, 22, 26, 0)
s = 107: (0, 75, 8, 7, 46, 9, 15, 25, 20, 16, 57, 0)
s = 108: (0, 129, 21, 9, 26, 10, 10, 28, 46, 20, 39, 0)
s = 109: (0, 171, 16, 9, 34, 12, 8, 29, 36, 12, 66, 0)
s = 110: (0, 103, 15, 6, 58, 11, 8, 33, 22, 23, 39, 0)
s = 111: (0, 73, 10, 7, 45, 11, 16, 27, 26, 14, 51, 0)
s = 112: (0, 102, 15, 7, 47, 16, 10, 22, 35, 9, 35, 0)
s = 113: (0, 105, 9, 8, 39, 8, 13, 25, 29, 12, 59, 0)
s = 114: (0, 103, 15, 7, 72, 7, 11, 17, 38, 13, 49, 0)
s = 115: (0, 117, 22, 9, 36, 12, 9, 25, 38, 16, 44, 0)
s = 116: (0, 155, 17, 9, 67, 13, 19, 17, 19, 10, 57, 0)
s = 117: (0, 196, 19, 5, 37, 11, 7, 18, 19, 10, 43, 0)
s = 118: (0, 166, 8, 11, 33, 8, 19, 29, 41, 16, 28, 0)
s = 119: (0, 192, 10, 9, 58, 13, 14, 23, 30, 16, 31, 0)
s = 120: (0, 176, 17, 14, 67, 11, 12, 16, 25, 15, 34, 0)
s = 121: (0, 148, 10, 13, 45, 12, 10, 27, 30, 18, 50, 0)
s = 122: (0, 82, 9, 11, 59, 8, 8, 27, 25, 12, 34, 0)
s = 123: (0, 188, 18, 7, 39, 16, 11, 30, 41, 17, 36, 0)
s = 124: (0, 119, 19, 9, 31, 13, 11, 14, 39, 21, 54, 0)
s = 125: (0, 171, 26, 12, 29, 9, 10, 25, 34, 10, 54, 0)
s = 126: (0, 141, 15, 7, 43, 10, 11, 24, 22, 14, 43, 0)
s = 127: (0, 99, 13, 12, 64, 15, 24, 18, 29, 20, 37, 0)
s = 128: (0, 149, 14, 8, 29, 11, 21, 25, 37, 13, 45, 0)
s = 129: (0, 124, 8, 8, 57, 10, 11, 19, 62, 11, 43, 0)
s = 130: (0, 111, 17, 8, 27, 7, 9, 38, 56, 11, 29, 0)
s = 131: (0, 75, 22, 14, 43, 6, 10, 21, 50, 20, 59, 0)
s = 132: (0, 97, 21, 9, 41, 11, 18, 31, 47, 14, 31, 0)
s = 133: (0, 81, 10, 7, 42, 10, 20, 20, 31, 16, 28, 0)
s = 134: (0, 112, 15, 12, 27, 9, 15, 29, 37, 17, 54, 0)
s = 135: (0, 127, 19, 10, 40, 11, 8, 25, 26, 10, 40, 0)
s = 136: (0, 108, 9, 9, 60, 7, 15, 21, 40, 16, 48, 0)
s = 137: (0, 82, 16, 12, 74, 6, 8, 27, 26, 18, 30, 0)
s = 138: (0, 144, 14, 11, 30, 12, 9, 27, 30, 22, 47, 0)
s = 139: (0, 146, 15, 7, 40, 9, 14, 29, 31, 21, 37, 0)
s = 140: (0, 95, 14, 7, 29, 13, 14, 25, 38, 11, 58, 0)
s = 141: (0, 182, 8, 8, 42, 12, 20, 37, 37, 18, 27, 0)
s = 142: (0, 110, 9, 9, 56, 15, 19, 29, 21, 15, 30, 0)
s = 143: (0, 110, 13, 7, 33, 14, 10, 21, 40, 21, 42, 0)
s = 144: (0, 180, 12, 12, 28, 15, 8, 25, 27, 17, 31, 0)
s = 145: (0, 164, 16, 8, 53, 11, 15, 25, 28, 21, 36, 0)
s = 146: (0, 130, 15, 9, 36, 11, 8, 17, 25, 26, 41, 0)
s = 147: (0, 74, 18, 6, 54, 10, 12, 22, 29, 14, 65, 0)
s = 148: (0, 109, 9, 8, 25, 16, 20, 36, 24, 12, 25, 0)
s = 149: (0, 77, 17, 9, 34, 8, 11, 32, 27, 20, 42, 0)
s = 150: (0, 96, 15, 8, 30, 10, 12, 25, 30, 28, 37, 0)
s = 151: (0, 150, 15, 7, 48, 10, 14, 26, 30, 11, 30, 0)
s = 152: (0, 156, 10, 10, 42, 14, 14, 19, 44, 22, 37, 0)
s = 153: (0, 130, 9, 14, 30, 12, 12, 23, 19, 12, 54, 0)
s = 154: (0, 136, 18, 10, 60, 8, 20, 33, 26, 14, 59, 0)
s = 155: (0, 90, 16, 5, 42, 13, 11, 27, 23, 14, 47, 0)
s = 156: (0, 121, 9, 8, 42, 6, 11, 30, 47, 12, 46, 0)
s = 157: (0, 121, 14, 10, 40, 11, 12, 18, 27, 24, 46, 0)
s = 158: (0, 132, 20, 9, 35, 11, 13, 19, 33, 12, 42, 0)
s = 159: (0, 166, 8, 6, 34, 15, 9, 21, 17, 21, 34, 0)
s = 160: (0, 76, 17, 7, 50, 10, 14, 21, 31, 13, 34, 0)
s = 161: (0, 82, 16, 7, 51, 9, 15, 15, 39, 12, 51, 0)
s = 162: (0, 163, 14, 9, 59, 7, 13, 19, 27, 19, 31, 0)
s = 163: (0, 123, 12, 6, 34, 6, 18, 17, 44, 11, 52, 0)
s = 164: (0, 74, 10, 6, 34, 8, 8, 28, 27, 19, 28, 0)
s = 165: (0, 105, 11, 15, 42, 12, 15, 16, 26, 22, 43, 0)
s = 166: (0, 138, 15, 11, 29, 11, 11, 21, 31, 30, 31, 0)
s = 167: (0, 102, 21, 8, 36, 10, 17, 25, 38, 15, 37, 0)
s = 168: (0, 91, 15, 8, 56, 11, 19, 23, 23, 16, 27, 0)
s = 169: (0, 143, 20, 11, 30, 10, 9, 19, 30, 13, 54, 0)
s = 170: (0, 92, 14, 7, 33, 10, 18, 25, 20, 11, 32, 0)
s = 171: (0, 131, 12, 13, 33, 9, 20, 30, 27, 10, 64, 0)
s = 172: (0, 114, 14, 10, 36, 14, 16, 30, 23, 15, 62, 0)
s = 173: (0, 136, 9, 6, 62, 7, 14, 23, 21, 11, 36, 0)
s = 174: (0, 114, 18, 5, 41, 14, 14, 14, 24, 12, 53, 0)
s = 175: (0, 141, 13, 8, 56, 13, 10, 21, 48, 13, 54, 0)
s = 176: (0, 147, 22, 6, 68, 12, 11, 18, 39, 14, 49, 0)
s = 177: (0, 204, 11, 9, 47, 6, 17, 29, 36, 15, 33, 0)
s = 178: (0, 86, 10, 6, 32, 9, 8, 22, 18, 11, 39, 0)
s = 179: (0, 109, 10, 12, 54, 9, 12, 20, 44, 15, 25, 0)
s = 180: (0, 128, 20, 10, 40, 12, 13, 19, 19, 23, 39, 0)
s = 181: (0, 96, 13, 7, 34, 11, 15, 24, 20, 12, 54, 0)
s = 182: (0, 70, 12, 9, 35, 12, 7, 20, 45, 19, 49, 0)
s = 183: (0, 119, 15, 7, 41, 11, 15, 31, 30, 15, 31, 0)
s = 184: (0, 199, 13, 9, 58, 12, 10, 33, 41, 12, 37, 0)
s = 185: (0, 219, 12, 8, 32, 9, 12, 19, 36, 21, 31, 0)
s = 186: (0, 180, 14, 9, 50, 6, 12, 23, 39, 21, 41, 0)
s = 187: (0, 121, 15, 8, 49, 12, 10, 16, 22, 17, 25, 0)
s = 188: (0, 96, 15, 7, 52, 10, 16, 22, 26, 23, 51, 0)
s = 189: (0, 102, 15, 8, 40, 11, 15, 20, 29, 15, 53, 0)
s = 190: (0, 89, 14, 10, 49, 10, 18, 16, 32, 14, 44, 0)
s = 191: (0, 94, 19, 8, 35, 10, 10, 19, 24, 14, 49, 0)
s = 192: (0, 132, 14, 10, 70, 9, 19, 26, 29, 29, 55, 0)
s = 193: (0, 101, 12, 10, 50, 9, 15, 17, 29, 14, 55, 0)
s = 194: (0, 210, 13, 7, 45, 12, 10, 25, 31, 16, 33, 0)
s = 195: (0, 90, 13, 5, 57, 10, 9, 26, 30, 21, 30, 0)
s = 196: (0, 91, 18, 8, 26, 7, 13, 25, 26, 10, 37, 0)
s = 197: (0, 140, 11, 7, 57, 10, 12, 19, 30, 15, 47, 0)
s = 198: (0, 122, 9, 7, 50, 10, 10, 25, 37, 17, 46, 0)
s = 199: (0, 153, 10, 11, 23, 7, 19, 20, 28, 17, 38, 0)
s = 200: (0, 128, 14, 5, 49, 8, 8, 28, 27, 14, 45, 0)
------------------------------------------------------------------------
RESOURCE k = 2
s = 1: (0, 88, 14, 26, 13, 23, 8, 21, 40, 18, 74, 0)
s = 2: (0, 47, 17, 14, 22, 20, 14, 14, 28, 12, 40, 0)
s = 3: (0, 61, 11, 15, 13, 12, 14, 26, 34, 10, 38, 0)
s = 4: (0, 73, 12, 14, 12, 16, 9, 16, 21, 19, 25, 0)
s = 5: (0, 85, 24, 20, 16, 19, 12, 22, 25, 12, 39, 0)
s = 6: (0, 84, 15, 24, 19, 18, 10, 29, 24, 11, 56, 0)
s = 7: (0, 96, 36, 25, 15, 10, 8, 15, 18, 12, 34, 0)
s = 8: (0, 125, 19, 27, 13, 9, 11, 16, 31, 13, 45, 0)
s = 9: (0, 80, 11, 21, 25, 12, 13, 17, 22, 19, 48, 0)
s = 10: (0, 89, 15, 37, 13, 22, 11, 16, 28, 14, 51, 0)
s = 11: (0, 81, 19, 32, 17, 15, 15, 27, 29, 8, 46, 0)
s = 12: (0, 82, 23, 30, 12, 14, 6, 12, 19, 9, 43, 0)
s = 13: (0, 144, 21, 16, 12, 15, 9, 24, 27, 8, 34, 0)
s = 14: (0, 85, 13, 27, 17, 24, 9, 19, 28, 22, 41, 0)
s = 15: (0, 69, 22, 16, 16, 14, 8, 15, 58, 11, 41, 0)
s = 16: (0, 75, 21, 24, 21, 10, 9, 12, 32, 12, 25, 0)
s = 17: (0, 112, 26, 15, 15, 22, 18, 28, 25, 12, 47, 0)
s = 18: (0, 117, 17, 13, 11, 12, 11, 12, 28, 7, 36, 0)
s = 19: (0, 140, 21, 10, 12, 11, 11, 27, 35, 15, 51, 0)
s = 20: (0, 153, 18, 25, 14, 14, 12, 22, 24, 17, 42, 0)
s = 21: (0, 147, 24, 22, 22, 18, 8, 31, 22, 9, 47, 0)
s = 22: (0, 80, 29, 11, 15, 16, 9, 14, 28, 15, 55, 0)
s = 23: (0, 112, 11, 17, 15, 15, 10, 16, 33, 15, 34, 0)
s = 24: (0, 76, 18, 16, 12, 11, 8, 19, 32, 18, 35, 0)
s = 25: (0, 108, 14, 25, 17, 14, 16, 14, 45, 24, 31, 0)
s = 26: (0, 62, 19, 26, 20, 23, 15, 22, 32, 17, 48, 0)
s = 27: (0, 108, 25, 17, 13, 25, 9, 15, 41, 13, 29, 0)
s = 28: (0, 95, 18, 16, 12, 11, 16, 16, 25, 11, 32, 0)
s = 29: (0, 84, 19, 18, 13, 27, 13, 27, 26, 17, 40, 0)
s = 30: (0, 94, 22, 18, 10, 14, 14, 16, 48, 8, 40, 0)
s = 31: (0, 109, 19, 22, 12, 23, 7, 19, 45, 11, 42, 0)
s = 32: (0, 100, 16, 19, 21, 18, 9, 17, 34, 11, 32, 0)
s = 33: (0, 127, 32, 23, 13, 22, 15, 26, 34, 14, 73, 0)
s = 34: (0, 93, 19, 32, 14, 24, 10, 29, 30, 18, 43, 0)
s = 35: (0, 90, 18, 15, 12, 12, 10, 19, 34, 12, 45, 0)
s = 36: (0, 63, 16, 18, 22, 22, 11, 18, 33, 17, 46, 0)
s = 37: (0, 88, 12, 20, 13, 15, 14, 23, 31, 11, 40, 0)
s = 38: (0, 101, 21, 14, 9, 11, 10, 16, 22, 11, 58, 0)
s = 39: (0, 65, 18, 18, 18, 23, 15, 21, 32, 16, 27, 0)
s = 40: (0, 120, 31, 10, 13, 23, 8, 15, 30, 20, 25, 0)
s = 41: (0, 120, 24, 22, 13, 16, 9, 25, 19, 16, 33, 0)
s = 42: (0, 83, 19, 22, 17, 15, 10, 27, 32, 11, 36, 0)
s = 43: (0, 113, 12, 15, 10, 24, 13, 31, 33, 13, 33, 0)
s = 44: (0, 78, 25, 14, 22, 12, 10, 18, 47, 14, 52, 0)
s = 45: (0, 121, 26, 18, 10, 17, 9, 24, 30, 10, 47, 0)
s = 46: (0, 84, 21, 27, 17, 11, 15, 22, 26, 8, 51, 0)
s = 47: (0, 88, 12, 14, 13, 17, 11, 18, 26, 17, 32, 0)
s = 48: (0, 69, 27, 20, 9, 17, 11, 16, 34, 12, 31, 0)
s = 49: (0, 75, 21, 18, 10, 12, 12, 25, 21, 11, 48, 0)
s = 50: (0, 70, 14, 17, 10, 23, 13, 24, 23, 11, 59, 0)
s = 51: (0, 56, 22, 25, 14, 23, 11, 14, 26, 17, 47, 0)
s = 52: (0, 142, 15, 13, 10, 14, 14, 32, 41, 13, 27, 0)
s = 53: (0, 78, 20, 25, 15, 10, 11, 17, 23, 12, 61, 0)
s = 54: (0, 81, 26, 16, 17, 16, 15, 21, 25, 13, 54, 0)
s = 55: (0, 73, 17, 16, 13, 13, 12, 16, 44, 16, 42, 0)
s = 56: (0, 100, 12, 22, 23, 13, 15, 13, 55, 19, 48, 0)
s = 57: (0, 66, 23, 12, 10, 16, 9, 32, 20, 15, 59, 0)
s = 58: (0, 93, 13, 23, 14, 25, 10, 18, 31, 11, 46, 0)
s = 59: (0, 96, 16, 24, 21, 18, 14, 18, 49, 12, 50, 0)
s = 60: (0, 105, 16, 20, 19, 12, 14, 23, 25, 16, 49, 0)
s = 61: (0, 135, 22, 18, 12, 21, 11, 25, 41, 10, 40, 0)
s = 62: (0, 77, 16, 13, 15, 17, 13, 44, 42, 18, 27, 0)
s = 63: (0, 102, 23, 14, 13, 20, 13, 16, 40, 10, 34, 0)
s = 64: (0, 72, 24, 18, 12, 16, 10, 32, 32, 9, 27, 0)
s = 65: (0, 80, 19, 14, 15, 18, 9, 23, 38, 18, 41, 0)
s = 66: (0, 84, 20, 30, 17, 16, 10, 17, 20, 9, 66, 0)
s = 67: (0, 67, 22, 24, 14, 14, 7, 27, 24, 18, 41, 0)
s = 68: (0, 103, 16, 23, 17, 19, 12, 14, 36, 8, 41, 0)
s = 69: (0, 77, 14, 23, 13, 10, 15, 24, 31, 16, 63, 0)
s = 70: (0, 120, 13, 15, 18, 15, 13, 27, 33, 13, 25, 0)
s = 71: (0, 88, 20, 15, 28, 12, 12, 17, 27, 15, 33, 0)
s = 72: (0, 77, 19, 13, 12, 13, 15, 18, 38, 11, 37, 0)
s = 73: (0, 87, 24, 38, 13, 11, 15, 37, 40, 13, 28, 0)
s = 74: (0, 66, 21, 11, 18, 17, 10, 28, 43, 10, 35, 0)
s = 75: (0, 72, 23, 14, 13, 15, 10, 20, 33, 17, 42, 0)
s = 76: (0, 126, 20, 19, 18, 19, 11, 20, 33, 12, 32, 0)
s = 77: (0, 103, 26, 17, 12, 9, 10, 20, 45, 16, 32, 0)
s = 78: (0, 124, 22, 37, 15, 26, 8, 20, 36, 14, 51, 0)
s = 79: (0, 117, 31, 12, 18, 11, 17, 21, 36, 12, 27, 0)
s = 80: (0, 98, 24, 14, 13, 13, 19, 28, 21, 11, 37, 0)
s = 81: (0, 69, 18, 20, 14, 14, 17, 22, 42, 13, 42, 0)
s = 82: (0, 68, 14, 22, 14, 16, 16, 28, 19, 16, 47, 0)
s = 83: (0, 79, 20, 24, 16, 11, 8, 24, 31, 11, 53, 0)
s = 84: (0, 98, 20, 30, 20, 11, 11, 18, 34, 14, 31, 0)
s = 85: (0, 126, 12, 20, 23, 12, 13, 25, 23, 9, 35, 0)
s = 86: (0, 99, 19, 23, 10, 20, 8, 31, 36, 16, 31, 0)
s = 87: (0, 92, 14, 25, 13, 15, 15, 18, 27, 10, 59, 0)
s = 88: (0, 167, 14, 19, 15, 21, 9, 22, 55, 8, 35, 0)
s = 89: (0, 117, 26, 17, 11, 23, 9, 19, 35, 14, 31, 0)
s = 90: (0, 96, 12, 15, 10, 15, 8, 25, 42, 12, 42, 0)
s = 91: (0, 112, 20, 22, 17, 22, 11, 21, 37, 15, 37, 0)
s = 92: (0, 69, 19, 29, 12, 21, 10, 29, 32, 11, 44, 0)
s = 93: (0, 60, 16, 29, 8, 16, 8, 30, 29, 11, 55, 0)
s = 94: (0, 159, 22, 18, 16, 19, 14, 33, 39, 14, 30, 0)
s = 95: (0, 152, 18, 24, 19, 16, 11, 34, 27, 13, 65, 0)
s = 96: (0, 76, 21, 23, 9, 11, 9, 26, 36, 13, 46, 0)
s = 97: (0, 70, 11, 19, 16, 18, 10, 23, 50, 11, 60, 0)
s = 98: (0, 54, 16, 21, 16, 15, 13, 20, 24, 13, 43, 0)
s = 99: (0, 104, 23, 24, 20, 21, 9, 23, 23, 10, 33, 0)
s = 100: (0, 79, 22, 11, 10, 21, 10, 27, 23, 9, 47, 0)
s = 101: (0, 65, 19, 23, 21, 19, 12, 27, 37, 8, 38, 0)
s = 102: (0, 103, 27, 18, 14, 14, 9, 24, 30, 10, 36, 0)
s = 103: (0, 114, 16, 27, 20, 19, 16, 30, 28, 11, 59, 0)
s = 104: (0, 148, 16, 23, 9, 17, 11, 38, 36, 9, 41, 0)
s = 105: (0, 87, 23, 14, 11, 11, 14, 16, 27, 21, 49, 0)
s = 106: (0, 86, 19, 13, 14, 12, 8, 15, 41, 18, 29, 0)
s = 107: (0, 54, 12, 15, 17, 13, 13, 23, 22, 13, 63, 0)
s = 108: (0, 93, 30, 21, 10, 15, 8, 26, 50, 16, 43, 0)
s = 109: (0, 122, 23, 22, 12, 18, 7, 26, 40, 10, 73, 0)
s = 110: (0, 74, 22, 13, 21, 16, 7, 30, 24, 19, 42, 0)
s = 111: (0, 52, 14, 15, 16, 16, 14, 25, 28, 12, 56, 0)
s = 112: (0, 73, 21, 15, 17, 23, 9, 20, 39, 8, 38, 0)
s = 113: (0, 75, 12, 18, 14, 12, 11, 23, 31, 10, 65, 0)
s = 114: (0, 74, 22, 16, 26, 11, 9, 16, 41, 11, 53, 0)
s = 115: (0, 83, 31, 21, 13, 18, 8, 23, 42, 13, 48, 0)
s = 116: (0, 111, 25, 21, 24, 19, 16, 16, 20, 8, 62, 0)
s = 117: (0, 140, 28, 12, 14, 17, 6, 17, 21, 8, 47, 0)
s = 118: (0, 119, 11, 26, 12, 12, 16, 27, 45, 13, 31, 0)
s = 119: (0, 138, 14, 20, 21, 19, 12, 21, 33, 13, 34, 0)
s = 120: (0, 126, 24, 32, 24, 16, 10, 15, 27, 12, 37, 0)
s = 121: (0, 106, 15, 29, 16, 18, 9, 25, 33, 14, 55, 0)
s = 122: (0, 59, 12, 26, 21, 12, 7, 25, 27, 10, 37, 0)
s = 123: (0, 134, 26, 16, 14, 24, 9, 27, 45, 14, 39, 0)
s = 124: (0, 85, 27, 21, 11, 19, 9, 13, 43, 17, 60, 0)
s = 125: (0, 123, 38, 28, 11, 13, 9, 23, 37, 8, 60, 0)
s = 126: (0, 101, 22, 17, 16, 15, 9, 22, 24, 12, 47, 0)
s = 127: (0, 71, 19, 28, 23, 22, 21, 17, 32, 16, 41, 0)
s = 128: (0, 107, 20, 19, 11, 17, 18, 23, 41, 11, 49, 0)
s = 129: (0, 89, 12, 19, 21, 14, 9, 17, 68, 9, 48, 0)
s = 130: (0, 80, 25, 18, 10, 10, 7, 35, 62, 9, 31, 0)
s = 131: (0, 54, 32, 32, 16, 8, 9, 19, 55, 17, 65, 0)
s = 132: (0, 69, 30, 20, 15, 16, 15, 29, 52, 12, 34, 0)
s = 133: (0, 58, 14, 17, 15, 14, 17, 19, 34, 13, 30, 0)
s = 134: (0, 80, 22, 29, 10, 14, 13, 27, 40, 14, 59, 0)
s = 135: (0, 91, 28, 22, 15, 16, 7, 23, 28, 8, 44, 0)
s = 136: (0, 77, 13, 21, 22, 11, 13, 19, 44, 13, 53, 0)
s = 137: (0, 59, 24, 28, 27, 9, 7, 25, 29, 15, 33, 0)
s = 138: (0, 103, 21, 26, 11, 18, 7, 25, 32, 18, 52, 0)
s = 139: (0, 104, 21, 16, 15, 14, 12, 27, 34, 17, 40, 0)
s = 140: (0, 68, 21, 15, 11, 19, 12, 23, 41, 9, 64, 0)
s = 141: (0, 130, 12, 18, 15, 17, 17, 34, 41, 15, 29, 0)
s = 142: (0, 79, 13, 20, 20, 23, 16, 26, 23, 12, 33, 0)
s = 143: (0, 79, 18, 16, 12, 20, 9, 19, 44, 17, 46, 0)
s = 144: (0, 129, 17, 27, 10, 22, 7, 23, 29, 14, 34, 0)
s = 145: (0, 118, 24, 19, 19, 17, 13, 23, 30, 17, 39, 0)
s = 146: (0, 93, 22, 20, 13, 16, 7, 15, 27, 22, 45, 0)
s = 147: (0, 53, 26, 13, 20, 14, 10, 20, 32, 12, 71, 0)
s = 148: (0, 78, 14, 19, 9, 23, 17, 33, 27, 10, 27, 0)
s = 149: (0, 55, 25, 20, 13, 11, 10, 29, 30, 16, 46, 0)
s = 150: (0, 69, 22, 19, 11, 14, 11, 23, 33, 23, 40, 0)
s = 151: (0, 107, 21, 17, 18, 15, 12, 24, 33, 9, 33, 0)
s = 152: (0, 111, 14, 23, 15, 21, 12, 18, 48, 18, 40, 0)
s = 153: (0, 93, 13, 32, 11, 17, 10, 21, 21, 10, 60, 0)
s = 154: (0, 97, 26, 22, 22, 12, 17, 30, 29, 11, 65, 0)
s = 155: (0, 65, 23, 11, 15, 19, 9, 25, 26, 12, 52, 0)
s = 156: (0, 87, 12, 17, 15, 9, 9, 28, 52, 9, 50, 0)
s = 157: (0, 86, 20, 23, 15, 16, 10, 17, 30, 20, 50, 0)
s = 158: (0, 95, 29, 20, 13, 16, 11, 18, 37, 10, 47, 0)
s = 159: (0, 118, 12, 15, 12, 22, 7, 19, 19, 18, 37, 0)
s = 160: (0, 55, 24, 16, 18, 14, 12, 20, 34, 10, 37, 0)
s = 161: (0, 58, 23, 17, 19, 13, 13, 14, 43, 10, 56, 0)
s = 162: (0, 117, 20, 21, 22, 10, 11, 18, 29, 16, 34, 0)
s = 163: (0, 88, 18, 14, 13, 9, 15, 16, 48, 9, 58, 0)
s = 164: (0, 53, 15, 13, 12, 12, 7, 26, 30, 15, 31, 0)
s = 165: (0, 75, 15, 35, 15, 18, 13, 15, 29, 18, 47, 0)
s = 166: (0, 98, 22, 24, 11, 17, 9, 20, 34, 25, 34, 0)
s = 167: (0, 73, 31, 18, 13, 15, 14, 23, 42, 12, 41, 0)
s = 168: (0, 65, 22, 19, 20, 16, 16, 21, 25, 13, 30, 0)
s = 169: (0, 103, 29, 25, 11, 14, 7, 17, 33, 11, 60, 0)
s = 170: (0, 66, 21, 15, 12, 15, 15, 23, 22, 9, 35, 0)
s = 171: (0, 93, 18, 29, 12, 13, 17, 28, 30, 8, 71, 0)
s = 172: (0, 81, 20, 22, 13, 20, 14, 28, 25, 12, 68, 0)
s = 173: (0, 97, 13, 14, 22, 11, 12, 22, 23, 9, 39, 0)
s = 174: (0, 81, 27, 12, 15, 21, 12, 13, 26, 10, 58, 0)
s = 175: (0, 101, 18, 18, 20, 20, 9, 20, 53, 11, 60, 0)
s = 176: (0, 105, 31, 13, 24, 17, 9, 16, 43, 11, 54, 0)
s = 177: (0, 146, 15, 21, 17, 9, 14, 27, 40, 12, 36, 0)
s = 178: (0, 62, 14, 14, 12, 13, 7, 20, 20, 9, 42, 0)
s = 179: (0, 78, 15, 27, 20, 13, 10, 19, 48, 12, 27, 0)
s = 180: (0, 91, 29, 23, 15, 18, 11, 18, 20, 19, 43, 0)
s = 181: (0, 68, 18, 17, 12, 16, 13, 22, 22, 9, 59, 0)
s = 182: (0, 50, 18, 22, 13, 18, 6, 18, 50, 15, 54, 0)
s = 183: (0, 85, 22, 16, 15, 16, 13, 29, 33, 12, 34, 0)
s = 184: (0, 142, 19, 21, 21, 17, 8, 30, 45, 10, 40, 0)
s = 185: (0, 157, 17, 18, 12, 13, 10, 17, 40, 17, 34, 0)
s = 186: (0, 129, 20, 20, 18, 9, 11, 21, 43, 17, 46, 0)
s = 187: (0, 86, 22, 18, 18, 18, 8, 15, 25, 14, 27, 0)
s = 188: (0, 69, 22, 16, 19, 15, 13, 20, 29, 19, 56, 0)
s = 189: (0, 73, 22, 18, 15, 16, 12, 19, 32, 12, 58, 0)
s = 190: (0, 64, 20, 24, 18, 14, 15, 15, 35, 11, 49, 0)
s = 191: (0, 67, 27, 19, 13, 15, 9, 17, 26, 12, 54, 0)
s = 192: (0, 94, 20, 24, 25, 13, 16, 24, 32, 24, 61, 0)
s = 193: (0, 72, 18, 22, 18, 13, 13, 15, 32, 12, 60, 0)
s = 194: (0, 150, 19, 17, 16, 18, 9, 23, 34, 13, 36, 0)
s = 195: (0, 64, 19, 11, 21, 15, 8, 24, 33, 17, 33, 0)
s = 196: (0, 65, 26, 19, 10, 10, 11, 23, 29, 8, 41, 0)
s = 197: (0, 100, 17, 15, 21, 14, 10, 18, 33, 12, 52, 0)
s = 198: (0, 87, 12, 16, 18, 15, 9, 23, 41, 14, 51, 0)
s = 199: (0, 110, 14, 27, 8, 10, 16, 18, 31, 14, 42, 0)
s = 200: (0, 92, 21, 11, 18, 11, 7, 26, 30, 11, 50, 0)
************************************************************************
ES/LS-VALUES:
jobnr.   ES(i)    LS(i)
------------------------------------------------------------------------
  0        0        0
  1        0       52
  2        0       64
  3        0       66
  4       16       69
  5        2       68
  6        2       68
  7        2       66
  8        6       70
  9       21       75
 10        3       70
 11       22       77
************************************************************************
BIG-M-VALUES:
M1 = 64, M2 = 401
************************************************************************
